DIMENSION: 12
EDGE_WEIGHT_TYPE : EUC_2D
NODE_COORD_SECTION
1 6.00 35.00
2 10.00 28.00
3 35.00 62.00
4 57.00 50.00
5 95.00 28.00
6 51.00 16.00
7 53.00 27.00
8 22.00 90.00
9 27.00 38.00
10 67.00 8.00
11 83.00 11.00
12 4.00 53.00
TOUR_SECTION
1
2
9
7
6
10
11
5
4
3
8
12